fac-Ir                                  
   1.00000000000000     
    17.8438396453999992    0.0000000000000000    0.0000000000000000
    -8.9219198226999996   15.4532184340000001    0.0000000000000000
     0.0000000000000000    0.0000000000000000   33.3935699462999978
    Cu
    196
Selective dynamics
Direct
  0.0040000007289080  0.0080000014578161  0.0210000002433901   F   F   F
  0.9087619090397610  0.3889523894760742  0.0834999966904988   F   F   F
  0.4801905114490452  0.2460952551885711  0.0834999966904988   F   F   F
  0.0516190514285597  0.1032381054350395  0.0834999966904988   F   F   F
  0.9563812756017271  0.4841641110897526  0.1460716133333712   T   T   T
  0.5278304991580381  0.3414359219209333  0.1460632803573892   T   T   T
  0.0039829915503236  0.5793883020951616  0.2077731058493471   T   T   T
  0.1468792114791241  0.2938265857437515  0.2079221398429845   T   T   T
  0.7182857464048880  0.8651428678821489  0.0210000002433901   F   F   F
  0.2897142779093187  0.7222856719246451  0.0210000002433901   F   F   F
  0.1468322944832736  0.0080885760518852  0.2077634438867182   T   T   T
  0.3373333535176002  0.8175238231412152  0.0834999966904988   F   F   F
  0.5754285901729830  0.8651428678821489  0.0210000002433901   F   F   F
  0.3851054848325630  0.9127284660929954  0.1460765177064011   T   T   T
  0.7182857791395705  0.1508571656420017  0.0210000002433901   F   F   F
  0.2421585131195738  0.4841943751551057  0.1461066169347429   T   T   T
  0.4326443554574637  0.0079389339362249  0.2077518027205721   T   T   T
  0.3373333651813368  0.1032381054350395  0.0834999966904988   F   F   F
  0.8135681448144716  0.3413592450731874  0.1460537884750695   T   T   T
  0.8611402299621110  0.0080725493275136  0.2077884813903161   T   T   T
  0.4326876421489401  0.2939360190085945  0.2078747007153443   T   T   T
  0.8611428893869260  0.7222856719246451  0.0210000002433901   F   F   F
  0.5754285903170882  0.7222856719246451  0.0210000002433901   F   F   F
  0.1468571301160893  0.5794285993718589  0.0210000002433901   F   F   F
  0.1944761974298004  0.6746666271837185  0.0834999966904988   F   F   F
  0.0991351116424673  0.1984002128763596  0.1461054423532024   T   T   T
  0.6706864741131114  0.9127693259927545  0.1460816239226274   T   T   T
  0.2420983662017747  0.7698427433571662  0.1460720703733837   T   T   T
  0.5754285721366657  0.0080000014578161  0.0210000002433901   F   F   F
  0.7181684469966543  0.0079256240249701  0.2077838210839469   T   T   T
  0.2898813430739550  0.8652177258472463  0.2076704021235938   T   T   T
  0.5279547748414929  0.1985762219518076  0.1460587248961763   T   T   T
  0.6706589486415953  0.1985006050946815  0.1460590883714304   T   T   T
  0.2420713832749867  0.0556619454193201  0.1460894679716679   T   T   T
  0.7182892196681739  0.2937875892696128  0.2077373928060124   T   T   T
  0.0516190496602604  0.5318095545662160  0.0834999966904988   F   F   F
  0.4325713891160703  0.5794285993718589  0.0210000002433901   F   F   F
  0.0040000161615268  0.4365714342170008  0.0210000002433901   F   F   F
  0.5754475929414126  0.4366014784011837  0.2079291146897257   T   T   T
  0.9087618581235901  0.8175238231412152  0.0834999966904988   F   F   F
  0.4801904430918498  0.6746666271837185  0.0834999966904988   F   F   F
  0.5278302885203405  0.7698290394789642  0.1460915458852479   T   T   T
  0.0991979011224661  0.6269255009795168  0.1460709326892436   T   T   T
  0.0039953151217301  0.0081123575952599  0.2078146502249611   T   T   T
  0.5753566904974592  0.8650600974699796  0.2078350160158899   T   T   T
  0.9087618563933475  0.1032381054350395  0.0834999966904988   F   F   F
  0.9563770248133721  0.1984339107641945  0.1460941417399212   T   T   T
  0.5278532935228244  0.0556217161510172  0.1460329760257554   T   T   T
  0.9564174293700141  0.9129385918767099  0.1461193977342042   T   T   T
  0.0040759404139837  0.2937481866635200  0.2078525106122883   T   T   T
  0.5754438106309866  0.1508563069420364  0.2077239878447637   T   T   T
  0.8611428578685647  0.0080000014578161  0.0210000002433901   F   F   F
  0.2420209337441762  0.1985406969094161  0.1461710965057824   T   T   T
  0.2897143219563674  0.4365714342170008  0.0210000002433901   F   F   F
  0.7659047154297696  0.6746666271837185  0.0834999966904988   F   F   F
  0.3373333553990605  0.5318095545662160  0.0834999966904988   F   F   F
  0.6230476276111006  0.2460952551885711  0.0834999966904988   F   F   F
  0.3850821436327984  0.6270422008069301  0.1461162228775620   T   T   T
  0.8610709069683731  0.8651614007618296  0.2077612248677803   T   T   T
  0.4326929584906701  0.7222443691828195  0.2079912362836829   T   T   T
  0.6230475857856703  0.8175238231412152  0.0834999966904988   F   F   F
  0.8135263945986233  0.0556122855105241  0.1460820804729983   T   T   T
  0.8611668327648346  0.1508833259227216  0.2077693971722968   T   T   T
  0.1468447369852498  0.7221976405488588  0.2076851934005133   T   T   T
  0.5754286009632565  0.4365714342170008  0.0210000002433901   F   F   F
  0.3373333552171403  0.2460952551885711  0.0834999966904988   F   F   F
  0.7659047869866882  0.9603808956940014  0.0834999966904988   F   F   F
  0.6230476344059497  0.5318095545662160  0.0834999966904988   F   F   F
  0.1944761986049173  0.3889523894760742  0.0834999966904988   F   F   F
  0.9087618598791707  0.2460952551885711  0.0834999966904988   F   F   F
  0.6705541727959650  0.6269750277288273  0.1461615726484443   T   T   T
  0.7180187310664727  0.7221995940201142  0.2078377818211883   T   T   T
  0.2897900908944718  0.5793558907521287  0.2078420315245394   T   T   T
  0.8135514527448973  0.1984570824154863  0.1460940344201381   T   T   T
  0.3849990117357132  0.4842013710851450  0.1461331916782020   T   T   T
  0.0040000053712461  0.8651428678821489  0.0210000002433901   F   F   F
  0.0516190192771759  0.9603808956940014  0.0834999966904988   F   F   F
  0.1944761991671555  0.5318095545662160  0.0834999966904988   F   F   F
  0.8611429134270736  0.4365714342170008  0.0210000002433901   F   F   F
  0.0040000047050484  0.1508571656420017  0.0210000002433901   F   F   F
  0.4325714089647335  0.2937142999295048  0.0210000002433901   F   F   F
  0.7182105040318416  0.4365913854157771  0.2077946114122982   T   T   T
  0.4801904537380182  0.3889523894760742  0.0834999966904988   F   F   F
  0.0516190561473024  0.2460952551885711  0.0834999966904988   F   F   F
  0.2897143131927251  0.0080000014578161  0.0210000002433901   F   F   F
  0.9563320211653061  0.6269389214001804  0.1460865728090444   T   T   T
  0.0992224265956875  0.3412415728334309  0.1460734360799903   T   T   T
  0.0992626354229333  0.9128487670652548  0.1460412005000743   T   T   T
  0.5753480668733925  0.5794195313853046  0.2080109659098452   T   T   T
  0.9087618666740198  0.5318095545662160  0.0834999966904988   F   F   F
  0.2897143044410839  0.8651428678821489  0.0210000002433901   F   F   F
  0.1467897858903108  0.1510901500187803  0.2078940018525644   T   T   T
  0.3373333316849454  0.9603808956940014  0.0834999966904988   F   F   F
  0.7182857748363389  0.2937142999295048  0.0210000002433901   F   F   F
  0.2897143104438484  0.1508571656420017  0.0210000002433901   F   F   F
  0.7659047704490263  0.2460952551885711  0.0834999966904988   F   F   F
  0.7659047661457947  0.3889523894760742  0.0834999966904988   F   F   F
  0.0992319068405447  0.7698942345648390  0.1460480730810773   T   T   T
  0.8135334055133520  0.4841485637436231  0.1460294101080941   T   T   T
  0.3849469422231521  0.3413921398946844  0.1461327731556978   T   T   T
  0.8610167765427088  0.5792820743527404  0.2078576264928565   T   T   T
  0.5278192258358694  0.4842554554306525  0.1461376115028792   T   T   T
  0.1468571350153454  0.7222856719246451  0.0210000002433901   F   F   F
  0.2898435484332127  0.7221370836260648  0.2076630904249650   T   T   T
  0.6230475906849335  0.9603808956940014  0.0834999966904988   F   F   F
  0.1944761972856952  0.8175238231412152  0.0834999966904988   F   F   F
  0.7182857282557578  0.5794285993718589  0.0210000002433901   F   F   F
  0.2421038835881387  0.9127777953658823  0.1460691693423080   T   T   T
  0.5754285828378158  0.1508571656420017  0.0210000002433901   F   F   F
  0.1468571569608130  0.0080000014578161  0.0210000002433901   F   F   F
  0.9087618764168255  0.9603808956940014  0.0834999966904988   F   F   F
  0.2898545423585426  0.0080274986848397  0.2076973745554656   T   T   T
  0.1944762089494247  0.1032381054350395  0.0834999966904988   F   F   F
  0.2898570105238198  0.1510543042371117  0.2076427930292572   T   T   T
  0.3850198860098140  0.1985868914723219  0.1461045945122956   T   T   T
  0.6706995092987129  0.3414090067425694  0.1460514722580123   T   T   T
  0.0040032738016365  0.7221885841252116  0.2077619372149352   T   T   T
  0.2898033903699303  0.2939339924051989  0.2079283221478290   T   T   T
  0.1469172155602480  0.4365293762927652  0.2078133232861903   T   T   T
  0.8611428892428137  0.8651428678821489  0.0210000002433901   F   F   F
  0.4325713940153264  0.7222856719246451  0.0210000002433901   F   F   F
  0.0039999872221159  0.5794285993718589  0.0210000002433901   F   F   F
  0.4801904428916970  0.8175238231412152  0.0834999966904988   F   F   F
  0.0516190278599566  0.6746666271837185  0.0834999966904988   F   F   F
  0.5278519729928998  0.9127644530996445  0.1460354216804123   T   T   T
  0.4325714025668219  0.0080000014578161  0.0210000002433901   F   F   F
  0.5754214784790644  0.0078507135989678  0.2077815352587075   T   T   T
  0.1468574900546735  0.8650969101886453  0.2076931378802100   T   T   T
  0.4801905080192626  0.1032381054350395  0.0834999966904988   F   F   F
  0.8611428685136744  0.1508571656420017  0.0210000002433901   F   F   F
  0.9563893155488723  0.3412746167601641  0.1460723417066839   T   T   T
  0.0991962142123080  0.0557497923163301  0.1461519631806213   T   T   T
  0.0040605033365346  0.4365207157730173  0.2077581041116992   T   T   T
  0.5754752142546864  0.2938908752266138  0.2078019820234904   T   T   T
  0.7182857465489931  0.7222856719246451  0.0210000002433901   F   F   F
  0.2897143061867737  0.5794285993718589  0.0210000002433901   F   F   F
  0.8134970950471835  0.7699324412568058  0.1461209386105899   T   T   T
  0.3373333259770845  0.6746666271837185  0.0834999966904988   F   F   F
  0.8135197648422738  0.9128436790728044  0.1460915662105604   T   T   T
  0.3850790912960976  0.7698787526265571  0.1461339308471909   T   T   T
  0.7182857150306390  0.0080000014578161  0.0210000002433901   F   F   F
  0.4327395279889602  0.8651113621945886  0.2079380392885083   T   T   T
  0.7659047135554147  0.1032381054350395  0.0834999966904988   F   F   F
  0.3850820680806191  0.0556610189096095  0.1460456071353281   T   T   T
  0.8611427167978426  0.2936950204997213  0.2077504267117337   T   T   T
  0.4326751923186437  0.1509351779598794  0.2077496394733173   T   T   T
  0.6705680672534137  0.4841977562424514  0.1460647835717393   T   T   T
  0.8610528087498457  0.4365177035412509  0.2077862281418591   T   T   T
  0.5754285854178249  0.5794285993718589  0.0210000002433901   F   F   F
  0.1468571523865236  0.4365714342170008  0.0210000002433901   F   F   F
  0.6230475725918438  0.6746666271837185  0.0834999966904988   F   F   F
  0.6706153884476771  0.7699073879775141  0.1460720454626422   T   T   T
  0.2420639322283460  0.6269465515910118  0.1460459497781725   T   T   T
  0.7180899567616761  0.8650261232859161  0.2078335578978640   T   T   T
  0.6705957684583366  0.0556147918165381  0.1460363819345880   T   T   T
  0.7182628110520007  0.1508089472942175  0.2077503579486411   T   T   T
  0.2897946868846017  0.4366541451846228  0.2079962843279754   T   T   T
  0.6230475707174890  0.1032381054350395  0.0834999966904988   F   F   F
  0.8611428710936835  0.5794285993718589  0.0210000002433901   F   F   F
  0.4325714313934128  0.4365714342170008  0.0210000002433901   F   F   F
  0.0040000071268196  0.2937142999295048  0.0210000002433901   F   F   F
  0.9087618849996133  0.6746666271837185  0.0834999966904988   F   F   F
  0.0516190519001114  0.3889523894760742  0.0834999966904988   F   F   F
  0.4801904381041950  0.5318095545662160  0.0834999966904988   F   F   F
  0.5277792625146926  0.6269717580724901  0.1461342408540310   T   T   T
  0.0991913030843030  0.4841114662326798  0.1460375975214865   T   T   T
  0.0040448178242416  0.8652276148474920  0.2077133034509854   T   T   T
  0.1469275411659774  0.5793147440637776  0.2077280702188391   T   T   T
  0.9564452655317303  0.0556929212433625  0.1461162511612631   T   T   T
  0.0040204528241417  0.1509697293952464  0.2078697060778736   T   T   T
  0.4325714222283494  0.8651428678821489  0.0210000002433901   F   F   F
  0.7182857705331003  0.4365714342170008  0.0210000002433901   F   F   F
  0.2897143195345961  0.2937142999295048  0.0210000002433901   F   F   F
  0.9563470710344779  0.7699387078795658  0.1461062977690878   T   T   T
  0.7659047772999230  0.5318095545662160  0.0834999966904988   F   F   F
  0.3373333375759628  0.3889523894760742  0.0834999966904988   F   F   F
  0.8133835523621225  0.6268908678538796  0.1461568622471508   T   T   T
  0.8610648847524002  0.7222320122024189  0.2077013738132660   T   T   T
  0.4325511315168341  0.5794267208756770  0.2079779802964910   T   T   T
  0.1468571482091718  0.8651428678821489  0.0210000002433901   F   F   F
  0.1944761888470197  0.9603808956940014  0.0834999966904988   F   F   F
  0.5754286052664952  0.2937142999295048  0.0210000002433901   F   F   F
  0.1468571542679840  0.1508571656420017  0.0210000002433901   F   F   F
  0.5753260198392417  0.7222397007176536  0.2079211149613603   T   T   T
  0.6230475965759510  0.3889523894760742  0.0834999966904988   F   F   F
  0.1944762057102380  0.2460952551885711  0.0834999966904988   F   F   F
  0.1468571510295433  0.2937142999295048  0.0210000002433901   F   F   F
  0.2420395646012810  0.3413310481604537  0.1461416312920878   T   T   T
  0.7181788123496395  0.5792823749974726  0.2079956047690493   T   T   T
  0.7659047954253637  0.8175238231412152  0.0834999966904988   F   F   F
  0.0039999788394809  0.7222856719246451  0.0210000002433901   F   F   F
  0.4325897239810736  0.4366718478312770  0.2079563639088743   T   T   T
  0.4801904420186602  0.9603808956940014  0.0834999966904988   F   F   F
  0.0516190544477624  0.8175238231412152  0.0834999966904988   F   F   F
  0.8611429176742647  0.2937142999295048  0.0210000002433901   F   F   F
  0.4325714399438425  0.1508571656420017  0.0210000002433901   F   F   F
